words_easy_train/words_908_SAT.qaiger
aag 69 16 0 1 53
16
32
26
22
24
6
12
28
2
18
4
10
30
8
20
14
139
34 21 19
36 34 23
38 36 25
40 38 27
42 40 29
44 42 31
46 43 30
48 47 45
50 49 15
52 48 14
54 53 51
56 20 4
58 21 5
60 59 57
62 60 2
64 62 18
66 61 3
68 66 19
70 69 65
72 35 22
74 73 37
76 74 7
78 75 6
80 79 77
82 80 71
84 37 24
86 85 39
88 86 9
90 87 8
92 91 89
94 92 82
96 39 26
98 97 41
100 98 11
102 99 10
104 103 101
106 104 94
108 41 28
110 109 43
112 110 13
114 111 12
116 115 113
118 116 106
120 118 55
122 33 17
124 32 16
126 125 123
128 127 44
130 126 45
132 131 129
134 133 120
136 132 121
138 137 135
i0 1 x2[7]
i1 2 y1[7]
i2 2 y1[4]
i3 2 y1[2]
i4 2 y1[3]
i5 1 x2[2]
i6 1 x2[5]
i7 2 y1[5]
i8 1 x2[0]
i9 2 y1[0]
i10 1 x2[1]
i11 1 x2[4]
i12 2 y1[6]
i13 1 x2[3]
i14 2 y1[1]
i15 1 x2[6]
o0 bv[0]
c
simplified
  >
    1
    xor
      1 x2
      unary minus
        2 y1
