words_easy_train/words_908_SAT.qaiger.qdimacs
p cnf 69 160
a 1 2 3 4 5 6 7 8 0
e 9 10 11 12 13 14 15 16 17 18 19 20 21 22 23 24 25 26 27 28 29 30 31 32 33 34 35 36 37 38 39 40 41 42 43 44 45 46 47 48 49 50 51 52 53 54 55 56 57 58 59 60 61 62 63 64 65 66 67 68 69 0
10 9 17 0
-10 -17 0
-9 -17 0
-17 11 18 0
17 -18 0
-11 -18 0
-18 12 19 0
18 -19 0
-12 -19 0
-19 13 20 0
19 -20 0
-13 -20 0
-20 14 21 0
20 -21 0
-14 -21 0
-21 15 22 0
21 -22 0
-15 -22 0
21 -15 23 0
-21 -23 0
15 -23 0
23 22 24 0
-23 -24 0
-22 -24 0
24 7 25 0
-24 -25 0
-7 -25 0
-24 -7 26 0
24 -26 0
7 -26 0
26 25 27 0
-26 -27 0
-25 -27 0
-10 -2 28 0
10 -28 0
2 -28 0
10 2 29 0
-10 -29 0
-2 -29 0
29 28 30 0
-29 -30 0
-28 -30 0
-30 -1 31 0
30 -31 0
1 -31 0
-31 -9 32 0
31 -32 0
9 -32 0
30 1 33 0
-30 -33 0
-1 -33 0
-33 9 34 0
33 -34 0
-9 -34 0
34 32 35 0
-34 -35 0
-32 -35 0
17 -11 36 0
-17 -36 0
11 -36 0
36 18 37 0
-36 -37 0
-18 -37 0
-37 3 38 0
37 -38 0
-3 -38 0
37 -3 39 0
-37 -39 0
3 -39 0
39 38 40 0
-39 -40 0
-38 -40 0
-40 35 41 0
40 -41 0
-35 -41 0
18 -12 42 0
-18 -42 0
12 -42 0
42 19 43 0
-42 -43 0
-19 -43 0
-43 4 44 0
43 -44 0
-4 -44 0
43 -4 45 0
-43 -45 0
4 -45 0
45 44 46 0
-45 -46 0
-44 -46 0
-46 -41 47 0
46 -47 0
41 -47 0
19 -13 48 0
-19 -48 0
13 -48 0
48 20 49 0
-48 -49 0
-20 -49 0
-49 5 50 0
49 -50 0
-5 -50 0
49 -5 51 0
-49 -51 0
5 -51 0
51 50 52 0
-51 -52 0
-50 -52 0
-52 -47 53 0
52 -53 0
47 -53 0
20 -14 54 0
-20 -54 0
14 -54 0
54 21 55 0
-54 -55 0
-21 -55 0
-55 6 56 0
55 -56 0
-6 -56 0
55 -6 57 0
-55 -57 0
6 -57 0
57 56 58 0
-57 -58 0
-56 -58 0
-58 -53 59 0
58 -59 0
53 -59 0
-59 27 60 0
59 -60 0
-27 -60 0
16 8 61 0
-16 -61 0
-8 -61 0
-16 -8 62 0
16 -62 0
8 -62 0
62 61 63 0
-62 -63 0
-61 -63 0
63 -22 64 0
-63 -64 0
22 -64 0
-63 22 65 0
63 -65 0
-22 -65 0
65 64 66 0
-65 -66 0
-64 -66 0
66 -60 67 0
-66 -67 0
60 -67 0
-66 60 68 0
66 -68 0
-60 -68 0
68 67 69 0
-68 -69 0
-67 -69 0
-69 0
